
******************************************************************************
This program contains Ipopt, a library for large-scale nonlinear optimization.
 Ipopt is released as open source code under the Eclipse Public License (EPL).
         For more information visit http://projects.coin-or.org/Ipopt

This version of Ipopt was compiled from source code available at
    https://github.com/IDAES/Ipopt as part of the Institute for the Design of
    Advanced Energy Systems Process Systems Engineering Framework (IDAES PSE
    Framework) Copyright (c) 2018-2019. See https://github.com/IDAES/idaes-pse.

This version of Ipopt was compiled using HSL, a collection of Fortran codes
    for large-scale scientific computation.  All technical papers, sales and
    publicity material resulting from use of the HSL codes within IPOPT must
    contain the following acknowledgement:
        HSL, a collection of Fortran codes for large-scale scientific
        computation. See http://www.hsl.rl.ac.uk.
******************************************************************************

This is Ipopt version 3.13.2, running with linear solver ma27.

Number of nonzeros in equality constraint Jacobian...:      958
Number of nonzeros in inequality constraint Jacobian.:        0
Number of nonzeros in Lagrangian Hessian.............:      832

Total number of variables............................:      416
                     variables with only lower bounds:      128
                variables with lower and upper bounds:      224
                     variables with only upper bounds:        0
Total number of equality constraints.................:      415
Total number of inequality constraints...............:        0
        inequality constraints with only lower bounds:        0
   inequality constraints with lower and upper bounds:        0
        inequality constraints with only upper bounds:        0

iter    objective    inf_pr   inf_du lg(mu)  ||d||  lg(rg) alpha_du alpha_pr  ls
   0  0.0000000e+00 2.85e-01 1.78e-15  -1.0 0.00e+00    -  0.00e+00 0.00e+00   0
   1  2.5721564e-01 1.66e-01 1.44e+03  -1.0 1.19e+05    -  7.75e-01 3.25e-01h  1
   2  2.6611453e-01 1.64e-01 1.43e+03  -1.0 8.10e+04    -  8.61e-01 8.57e-03h  1
   3  5.7063135e+00 1.35e-02 5.72e+03  -1.0 1.29e+05    -  8.51e-01 9.90e-01h  1
   4  6.6393203e+00 2.40e-04 9.61e+01  -1.0 1.34e+04    -  9.77e-01 9.90e-01h  1
   5  6.6601636e+00 2.44e-06 1.60e+00  -1.0 3.50e+02    -  9.90e-01 9.90e-01h  1
   6  6.7496457e+00 1.15e-05 3.11e+02  -1.0 2.00e+03    -  9.90e-01 9.90e-01h  1
   7  6.7023169e+00 8.86e-06 2.25e+07  -2.5 2.26e+03    -  9.97e-01 4.64e-01h  2
   8  6.6574379e+00 2.91e-06 2.86e+05  -2.5 1.00e+03    -  1.00e+00 9.97e-01h  1
   9  6.6579091e+00 9.24e-09 7.87e+07  -2.5 1.08e+01    -  1.00e+00 9.97e-01h  1
iter    objective    inf_pr   inf_du lg(mu)  ||d||  lg(rg) alpha_du alpha_pr  ls
  10  6.6579101e+00 5.57e-11 2.78e+10  -2.5 2.29e-02    -  1.00e+00 9.97e-01h  1
In iteration 10, 32 Slacks too small, adjusting variable bounds
  11  6.6579101e+00 2.16e-11 9.84e+12  -2.5 6.47e-05    -  1.00e+00 9.97e-01h  1
  12  6.6579101e+00 1.24e-11 1.58e-01  -2.5 4.21e-07    -  1.00e+00 1.00e+00h  1
  13  6.6578990e+00 7.69e-12 9.86e+12  -9.0 6.36e+01    -  1.00e+00 3.89e-03f  9
  14  6.6578769e+00 3.67e-12 9.78e+12  -9.0 6.31e+01    -  1.00e+00 7.81e-03f  8
  15  6.6578550e+00 3.43e-12 9.71e+12  -9.0 6.26e+01    -  1.00e+00 7.81e-03f  8
  16  6.6578441e+00 3.72e-12 9.67e+12  -9.0 6.21e+01    -  1.00e+00 3.91e-03f  9
  17  6.6578333e+00 8.54e-12 9.63e+12  -9.0 6.19e+01    -  1.00e+00 3.91e-03f  9
  18  6.6550707e+00 1.29e-08 6.62e-04  -9.0 6.16e+01    -  1.00e+00 1.00e+00f  1
  19  6.6550707e+00 1.42e-11 4.66e-10  -9.0 2.36e-03    -  1.00e+00 1.00e+00h  1

Number of Iterations....: 19

                                   (scaled)                 (unscaled)
Objective...............:   6.6550707024718161e+00    6.6550707024718161e+00
Dual infeasibility......:   4.6566128730773926e-10    4.6566128730773926e-10
Constraint violation....:   1.4222845123867955e-11    1.4222845123867955e-11
Complementarity.........:   9.0909094491968829e-10    9.0909094491968829e-10
Overall NLP error.......:   1.4222845123867955e-11    9.0909094491968829e-10


Number of objective function evaluations             = 75
Number of objective gradient evaluations             = 20
Number of equality constraint evaluations            = 75
Number of inequality constraint evaluations          = 0
Number of equality constraint Jacobian evaluations   = 20
Number of inequality constraint Jacobian evaluations = 0
Number of Lagrangian Hessian evaluations             = 19
Total CPU secs in IPOPT (w/o function evaluations)   =      0.044
Total CPU secs in NLP function evaluations           =      0.732

EXIT: Optimal Solution Found.
